NAME : Unnamed.831.tour
COMMENT : Length = 831
COMMENT : Found by LKH [Keld Helsgaun] Wed Oct 22 13:39:54 2014
TYPE : TOUR
DIMENSION : 104
TOUR_SECTION
1
18
28
30
36
8
15
20
27
13
75
60
43
73
66
64
74
65
102
55
59
57
68
52
69
77
58
61
53
47
46
19
14
25
24
2
54
63
76
45
70
56
62
67
72
44
49
51
48
98
97
101
95
96
93
92
103
88
91
99
100
94
90
87
71
50
9
33
4
23
3
42
12
16
10
78
86
89
81
83
79
80
85
84
82
34
38
31
104
41
5
37
35
32
40
11
29
17
22
39
26
7
6
21
-1
EOF
